p cnf 1239 1325
c ind 854 855 856 869 876 902 963 964 977 984 0
c ind 988 990 993 1009 1011 1014 1026 1027 1046 1048 0
c ind 1052 1063 1064 1068 1069 1070 1074 1076 847 962 0
c ind 877 889 848 849 961 852 853 960 1192 1193 0
c ind 1191 1190 1188 1224 1229 1206 1215 1220 1189 1210 0
c ind 1237 1223 1228 1205 1214 1209 1219 1236 1187 1182 0
c ind 1186 1185 1184 1222 1227 1204 1213 1208 1218 1235 0
c ind 1183 1221 1226 1203 1212 1207 1217 1234 1198 1202 0
c ind 1232 1180 1181 1179 1174 1178 1177 1176 1200 1230 0
c ind 1175 1231 1201 1225 1211 1216 1233 1172 1173 850 0
c ind 851 1165 1166 1171 1170 1169 1168 1167 1163 1164 0
c ind 1162 1199 1161 1159 1160 1195 1158 1153 1157 1156 0
c ind 1155 1154 1196 1151 1152 1150 1145 1149 1148 1147 0
c ind 1146 1143 1144 1136 1137 1142 1141 1140 1139 1138 0
c ind 1134 1135 1133 1132 1197 1130 1131 1129 1194 1124 0
c ind 1128 1127 1126 1125 1122 1123 1121 1116 1120 1119 0
c ind 1118 1117 1114 1115 1107 1108 1113 1112 1111 1110 0
c ind 1109 1105 1106 1104 1103 1101 1102 1100 1095 1099 0
c ind 1098 1097 1096 1093 1094 1092 1087 1091 1090 1089 0
c ind 1088 1085 1086 1078 1079 1084 1083 1082 1081 1080 0
c ind 1058 1059 1057 1056 1055 1077 1067 1065 1066 1054 0
c ind 1053 1075 1062 1051 1073 1071 1072 1060 1061 1050 0
c ind 1049 1042 1047 1045 1043 1044 1041 1034 1033 1040 0
c ind 1039 1038 1037 1036 1035 1032 1031 1030 1029 1028 0
c ind 846 1021 1020 1018 1019 1017 1016 1022 1023 1015 0
c ind 1013 1024 1012 1025 1010 1008 1006 1007 1005 1004 0
c ind 1003 1002 1001 1000 859 999 997 998 996 995 0
c ind 967 994 992 991 989 987 985 986 983 978 0
c ind 982 979 980 974 981 976 972 973 975 971 0
c ind 966 970 968 969 965 959 952 944 958 957 0
c ind 956 955 938 937 936 954 935 953 934 933 0
c ind 932 951 950 949 948 947 946 945 943 942 0
c ind 941 940 939 931 924 916 930 929 928 927 0
c ind 910 909 908 926 907 925 906 905 904 923 0
c ind 922 921 920 919 918 917 915 914 913 912 0
c ind 911 903 901 899 900 890 891 898 897 896 0
c ind 895 894 892 893 886 885 887 888 884 883 0
c ind 882 881 879 880 878 875 874 870 871 872 0
c ind 873 866 868 865 864 867 858 863 857 862 0
c ind 860 861 1 0
c ret 614 615 616 617 618 619 620 621 622 623 0
c ret 624 625 626 627 628 629 630 631 632 633 0
c ret 634 635 636 637 638 639 640 641 642 643 0
c ret 644 645 646 647 648 649 650 651 652 653 0
c ret 654 655 656 657 658 659 660 661 662 663 0
c ret 664 665 666 667 668 669 670 671 672 673 0
c ret 674 675 676 677 678 679 680 681 682 683 0
c ret 684 685 686 687 688 689 690 691 692 693 0
c ret 694 695 696 697 698 699 700 701 702 703 0
c ret 704 705 706 707 708 709 710 711 712 713 0
c ret 714 715 716 717 718 719 720 721 722 723 0
c ret 724 725 726 727 728 729 730 731 732 733 0
c ret 734 735 736 737 738 739 740 741 742 743 0
c ret 744 745 746 747 748 749 750 751 752 753 0
c ret 754 755 756 757 758 759 760 761 762 763 0
c ret 764 765 766 767 768 769 770 771 772 773 0
c ret 774 775 776 777 778 779 780 781 782 783 0
c ret 784 785 786 787 788 789 790 791 792 793 0
c ret 794 795 796 797 798 799 800 801 802 803 0
c ret 804 805 806 807 309 808 809 315 316 317 0
c ret 318 810 319 320 321 322 323 324 325 326 0
c ret 327 328 329 330 331 332 333 334 335 336 0
c ret 337 338 339 340 811 812 341 342 343 813 0
c ret 344 814 345 346 347 348 349 350 351 310 0
c ret 352 353 354 355 356 357 358 359 360 361 0
c ret 815 816 362 363 817 364 818 365 366 367 0
c ret 368 369 370 371 372 373 374 375 376 377 0
c ret 378 819 379 380 381 382 383 384 385 820 0
c ret 821 386 822 387 823 388 389 390 391 392 0
c ret 311 393 394 395 396 397 398 399 400 401 0
c ret 824 402 403 404 405 406 825 407 826 408 0
c ret 409 410 411 827 828 412 413 414 415 416 0
c ret 417 418 419 420 421 422 423 424 425 426 0
c ret 829 427 830 428 429 430 831 431 832 432 0
c ret 312 433 434 435 436 437 438 439 440 441 0
c ret 442 443 444 445 833 446 447 448 834 449 0
c ret 835 450 451 836 837 452 453 454 455 456 0
c ret 457 458 459 460 461 462 463 838 839 464 0
c ret 465 466 467 840 468 469 470 471 472 473 0
c ret 474 475 476 477 478 479 480 481 482 841 0
c ret 483 484 485 486 842 487 843 488 844 845 0
c ret 489 490 491 492 493 494 495 496 497 498 0
c ret 499 500 501 502 503 313 504 505 506 507 0
c ret 508 509 510 511 512 513 514 515 516 517 0
c ret 518 519 520 521 522 523 524 525 526 527 0
c ret 528 529 530 531 532 533 534 535 536 537 0
c ret 538 539 540 541 542 314 543 544 545 546 0
c ret 547 548 549 550 551 552 553 554 555 556 0
c ret 557 558 559 560 561 562 563 564 565 566 0
c ret 567 568 569 570 571 572 573 574 575 576 0
c ret 577 578 579 580 581 582 583 584 585 586 0
c ret 587 588 589 590 591 592 593 594 595 596 0
c ret 597 598 599 600 601 602 603 604 605 606 0
c ret 607 608 609 610 611 612 613 0
2 141 304 -305 0
2 3 304 -305 0
-2 305 0
-2 -304 0
-2 -3 -141 0
3 -4 -64 -131 0
3 4 64 121 0
3 4 64 -131 0
3 -4 -64 121 0
-3 4 -64 0
-3 -4 64 0
-3 -121 131 0
4 -5 -21 0
4 -5 58 0
-4 5 0
-4 21 -58 0
5 6 -12 0
-5 -6 0
-5 12 0
6 -8 -9 0
6 -7 -9 0
-6 9 0
-6 7 8 0
7 1078 0
7 -1079 -1085 0
7 1079 -1086 0
-7 -1078 1079 1086 0
-7 -1078 -1079 1085 0
-7 8 0
8 -1087 1093 0
8 1087 1094 0
7 -8 -1087 -1093 0
7 -8 1087 -1094 0
9 -10 -11 0
-7 9 -11 0
-9 11 0
7 -9 10 0
-7 10 0
10 1087 -1094 0
10 -1087 -1093 0
7 -10 -1087 1093 0
7 -10 1087 1094 0
11 1078 0
11 -1079 1085 0
11 1079 1086 0
-11 -1078 1079 -1086 0
-11 -1078 -1079 -1085 0
12 -13 14 0
12 -13 15 16 0
-12 13 0
-12 -14 -15 0
-12 -14 -16 0
13 -1136 -1165 0
-13 1136 0
-13 1165 0
14 1107 0
14 -1108 1114 0
14 1108 1115 0
-14 -1107 1108 -1115 0
-14 -1107 -1108 -1114 0
15 1107 0
15 -1108 -1114 0
15 1108 -1115 0
-15 -1107 1108 1115 0
-15 -1107 -1108 1114 0
16 -17 -18 -20 0
-16 17 0
-16 18 0
-16 20 0
17 1116 1123 0
17 -1116 1122 0
-17 -1116 -1122 0
-17 1116 -1123 0
18 19 0
18 -1124 1130 0
18 1124 1131 0
-18 -19 -1124 -1130 0
-18 -19 1124 -1131 0
15 -17 19 0
-15 -19 0
17 -19 0
19 20 0
20 1124 -1131 0
20 -1124 -1130 0
-19 -20 1124 1131 0
-19 -20 -1124 1130 0
21 -22 -57 -1215 0
21 22 -23 -57 0
-21 57 0
-21 -22 1215 0
-21 22 23 0
22 1073 -1075 0
-22 -1073 0
-22 1075 0
23 -24 -1214 0
23 24 -25 0
-23 -24 1214 0
-23 24 25 0
24 1045 -1047 0
-24 -1045 0
-24 1047 0
25 26 49 56 0
25 26 49 -52 0
-25 -26 0
-25 -49 0
-25 52 -56 0
26 -47 846 -1021 0
26 27 846 1021 0
-26 -846 0
-26 47 -1021 0
-26 -27 1021 0
27 -28 -1211 0
-27 1211 0
-27 28 0
28 -29 43 0
-28 29 0
-28 -43 0
29 -36 37 0
29 30 37 -911 0
-29 -37 0
-29 -30 36 0
-29 36 911 0
30 31 0
30 34 -910 0
30 34 916 0
-30 -31 -34 0
-30 -31 910 -916 0
31 -32 33 -904 -911 0
-31 32 0
-31 -33 0
-31 904 0
-31 911 0
32 905 906 907 0
-32 -905 0
-32 -907 0
-32 -906 0
33 908 -909 0
-33 -908 0
-33 909 0
34 35 910 916 -917 0
-34 -910 0
-34 -35 0
-34 917 0
-34 -916 0
35 924 925 0
-35 -924 0
-35 -925 0
32 36 -904 0
33 36 -904 -910 0
-36 904 0
-32 -36 910 0
-32 -33 -36 0
37 39 42 0
37 39 -41 0
37 38 39 0
-37 -39 0
-37 -38 41 -42 0
38 933 934 935 0
-38 -933 0
-38 -935 0
-38 -934 0
38 39 -932 0
39 40 -932 -938 0
-39 932 0
-38 -39 938 0
-38 -39 -40 0
40 936 -937 0
-40 -936 0
-40 937 0
41 944 945 0
41 944 952 953 0
-41 -944 0
-41 -945 -952 0
-41 -945 -953 0
40 42 -932 938 -939 0
-42 939 0
-40 -42 0
-42 932 0
-42 -938 0
43 -44 -878 0
43 -46 -878 0
43 -45 -878 0
-43 878 0
-43 44 45 46 0
44 -879 880 881 0
-44 879 0
-44 -881 0
-44 -880 0
45 884 887 888 0
-45 -884 0
-45 -888 0
-45 -887 0
46 -884 885 886 0
-46 884 0
-46 -886 0
-46 -885 0
47 -48 1212 0
27 47 48 0
-47 -48 -1212 0
-27 -47 48 0
48 987 -989 0
-48 -987 0
-48 989 0
49 -50 -51 -1031 0
49 -50 -51 -1032 0
-49 51 0
-49 50 0
-49 1031 1032 0
50 1034 1035 1036 1037 0
-50 -1037 0
-50 -1036 0
-50 -1034 0
-50 -1035 0
51 -1028 -1029 -1030 1033 0
-51 1030 0
-51 -1033 0
-51 1028 0
-51 1029 0
47 52 -53 0
-47 -52 0
-52 53 0
53 54 55 0
-53 -54 0
-53 -55 0
54 1008 -1010 0
-54 -1008 0
-54 1010 0
55 1000 1001 1002 0
-55 -1000 0
-55 -1002 0
-55 -1001 0
54 56 -846 0
56 -846 1213 0
-56 846 0
-54 -56 -1213 0
57 -1042 1049 0
-57 1042 0
-57 -1049 0
58 -59 -1042 0
23 25 58 0
23 58 -1042 0
25 58 -59 0
-25 -58 1042 0
-23 -58 59 0
59 61 1049 0
59 -60 61 0
59 61 1042 0
-59 -61 0
-59 60 -1042 -1049 0
60 -1050 1051 0
-60 1050 0
-60 -1051 0
61 62 -63 0
-61 -62 0
-61 63 0
62 1053 -1054 -1055 1056 0
-62 -1053 0
-62 -1056 0
-62 1055 0
-62 1054 0
63 -1042 -1049 -1050 1051 0
-63 1050 0
-63 -1051 0
-63 1042 0
-63 1049 0
64 -65 -76 0
64 -65 115 0
-64 65 0
-64 76 -115 0
65 66 -72 0
-65 -66 0
-65 72 0
66 -68 -69 0
66 -67 -69 0
-66 69 0
-66 67 68 0
67 541 0
67 -542 -548 0
67 542 -549 0
-67 -541 542 549 0
-67 -541 -542 548 0
-67 68 0
68 -550 556 0
68 550 557 0
67 -68 -550 -556 0
67 -68 550 -557 0
-67 69 -70 0
69 -70 -71 0
-69 70 0
67 -69 71 0
70 541 0
70 -542 548 0
70 542 549 0
-70 -541 542 -549 0
-70 -541 -542 -548 0
-67 71 0
71 550 -557 0
71 -550 -556 0
67 -71 -550 556 0
67 -71 550 557 0
72 -73 -74 -75 0
-72 73 0
-72 74 0
-72 75 0
73 -570 -744 -773 0
-73 570 0
-73 744 0
-73 773 0
74 -628 -657 0
-74 628 0
-74 657 0
75 -599 -686 -715 0
-75 599 0
-75 686 0
-75 715 0
76 -77 -114 -823 0
76 77 -78 -114 0
-76 114 0
-76 -77 823 0
-76 77 78 0
77 536 -538 0
-77 -536 0
-77 538 0
78 -79 -822 0
78 79 -80 0
-78 -79 822 0
-78 79 80 0
79 508 -510 0
-79 -508 0
-79 510 0
80 81 106 113 0
80 81 106 -109 0
-80 -81 0
-80 -106 0
-80 109 -113 0
81 -104 309 -484 0
81 82 309 484 0
-81 -309 0
-81 104 -484 0
-81 -82 484 0
82 -83 -819 0
-82 819 0
-82 83 0
83 84 -88 0
-83 -84 0
-83 88 0
84 -85 -341 0
84 -87 -341 0
84 -86 -341 0
-84 341 0
-84 85 86 87 0
85 -342 343 344 0
-85 342 0
-85 -344 0
-85 -343 0
86 347 350 351 0
-86 -347 0
-86 -351 0
-86 -350 0
87 -347 348 349 0
-87 347 0
-87 -349 0
-87 -348 0
88 89 -96 0
88 89 99 -374 0
-88 -89 0
-88 96 -99 0
-88 96 374 0
89 -90 93 0
89 93 395 0
-89 -93 0
-89 90 -395 0
90 -92 398 401 0
90 -91 -92 398 0
-90 -398 0
-90 92 0
-90 91 -401 0
91 399 -400 0
-91 -399 0
-91 400 0
92 396 397 0
-92 -396 0
-92 -397 0
91 -92 93 94 -95 0
92 -93 0
-93 -94 0
-91 -93 0
-93 95 0
94 407 408 0
94 407 415 416 0
-94 -407 0
-94 -408 -415 0
-94 -408 -416 0
95 -395 398 401 -402 0
-95 402 0
-95 -401 0
-95 395 0
-95 -398 0
96 97 -367 0
96 98 -367 -373 0
-96 367 0
-96 -97 373 0
-96 -97 -98 0
97 368 369 370 0
-97 -368 0
-97 -370 0
-97 -369 0
98 371 -372 0
-98 -371 0
-98 372 0
99 100 103 0
-99 -100 0
-99 -103 0
100 -101 -102 -387 0
100 -101 -102 -388 0
-100 102 0
-100 101 0
-100 387 388 0
-97 98 101 -367 -374 0
97 -101 0
-98 -101 0
-101 367 0
-101 374 0
102 373 379 -380 0
-102 380 0
-102 -379 0
-102 -373 0
-101 103 373 -379 0
101 -103 0
-103 379 0
-103 -373 0
104 -105 820 0
82 104 105 0
-104 -105 -820 0
-82 -104 105 0
105 450 -452 0
-105 -450 0
-105 452 0
106 -107 -108 -494 0
106 -107 -108 -495 0
-106 108 0
-106 107 0
-106 494 495 0
107 497 498 499 500 0
-107 -500 0
-107 -499 0
-107 -497 0
-107 -498 0
108 -491 -492 -493 496 0
-108 493 0
-108 -496 0
-108 491 0
-108 492 0
104 109 -110 0
-104 -109 0
-109 110 0
110 111 112 0
-110 -111 0
-110 -112 0
111 463 464 465 0
-111 -463 0
-111 -465 0
-111 -464 0
112 471 -473 0
-112 -471 0
-112 473 0
112 113 -309 0
113 -309 821 0
-113 309 0
-112 -113 -821 0
114 -505 512 0
-114 505 0
-114 -512 0
115 -116 -505 0
78 80 115 0
78 115 -505 0
80 115 -116 0
-80 -115 505 0
-78 -115 116 0
116 118 512 0
116 -117 118 0
116 118 505 0
-116 -118 0
-116 117 -505 -512 0
117 -513 514 0
-117 513 0
-117 -514 0
118 119 -120 0
-118 -119 0
-118 120 0
119 516 -517 -518 519 0
-119 -516 0
-119 -519 0
-119 518 0
-119 517 0
120 -505 -512 -513 514 0
-120 513 0
-120 -514 0
-120 505 0
-120 512 0
-5 121 -122 0
-5 121 130 0
5 -121 0
-121 122 -130 0
22 -57 122 -123 0
-22 -57 122 -1237 0
57 -122 0
22 -122 123 0
-22 -122 1237 0
-24 123 -1236 0
24 123 -124 0
-24 -123 1236 0
24 -123 124 0
49 124 125 129 0
49 124 125 -128 0
-49 -124 0
-124 -125 0
-124 128 -129 0
125 -127 846 -1021 0
125 126 846 1021 0
-125 -846 0
-125 127 -1021 0
-125 -126 1021 0
-28 126 -1233 0
-126 1233 0
28 -126 0
-48 127 1234 0
48 126 127 0
-48 -127 -1234 0
48 -126 -127 0
-53 127 128 0
53 -128 0
-127 -128 0
54 129 -846 0
129 -846 1235 0
-129 846 0
-54 -129 -1235 0
-59 124 130 0
123 130 -1042 0
-59 130 -1042 0
123 124 130 0
59 -123 -130 0
-124 -130 1042 0
-65 131 -132 0
-65 131 140 0
65 -131 0
-131 132 -140 0
77 -114 132 -133 0
-77 -114 132 -845 0
114 -132 0
77 -132 133 0
-77 -132 845 0
-79 133 -844 0
79 133 -134 0
-79 -133 844 0
79 -133 134 0
106 134 135 139 0
106 134 135 -138 0
-106 -134 0
-134 -135 0
-134 138 -139 0
135 -137 309 -484 0
135 136 309 484 0
-135 -309 0
-135 137 -484 0
-135 -136 484 0
-83 136 -841 0
-136 841 0
83 -136 0
-105 137 842 0
105 136 137 0
-105 -137 -842 0
105 -136 -137 0
-110 137 138 0
110 -138 0
-137 -138 0
112 139 -309 0
139 -309 843 0
-139 309 0
-112 -139 -843 0
-116 134 140 0
133 140 -505 0
-116 140 -505 0
133 134 140 0
116 -133 -140 0
-134 -140 505 0
141 142 151 -160 -283 0
141 -142 -151 -160 -283 0
-141 283 0
-141 -142 151 0
-141 160 0
-141 142 -151 0
-5 142 -143 0
-5 142 150 0
5 -142 0
-142 143 -150 0
22 -57 143 -144 0
-22 -57 143 -1210 0
57 -143 0
22 -143 144 0
-22 -143 1210 0
-24 144 -1209 0
24 144 -145 0
-24 -144 1209 0
24 -144 145 0
49 145 146 149 0
49 145 146 -148 0
-49 -145 0
-145 -146 0
-145 148 -149 0
146 -147 846 -1021 0
28 146 846 1021 0
-146 -846 0
-146 147 -1021 0
-28 -146 1021 0
-48 147 1207 0
28 48 147 0
-48 -147 -1207 0
-28 48 -147 0
-53 147 148 0
53 -148 0
-147 -148 0
54 149 -846 0
149 -846 1208 0
-149 846 0
-54 -149 -1208 0
-59 145 150 0
144 150 -1042 0
-59 150 -1042 0
144 145 150 0
59 -144 -150 0
-145 -150 1042 0
-65 151 -152 0
-65 151 159 0
65 -151 0
-151 152 -159 0
77 -114 152 -153 0
-77 -114 152 -818 0
114 -152 0
77 -152 153 0
-77 -152 818 0
-79 153 -817 0
79 153 -154 0
-79 -153 817 0
79 -153 154 0
106 154 155 158 0
106 154 155 -157 0
-106 -154 0
-154 -155 0
-154 157 -158 0
155 -156 309 -484 0
83 155 309 484 0
-155 -309 0
-155 156 -484 0
-83 -155 484 0
-105 156 815 0
83 105 156 0
-105 -156 -815 0
-83 105 -156 0
-110 156 157 0
110 -157 0
-156 -157 0
112 158 -309 0
158 -309 816 0
-158 309 0
-112 -158 -816 0
-116 154 159 0
153 159 -505 0
-116 159 -505 0
153 154 159 0
116 -153 -159 0
-154 -159 505 0
160 161 174 -188 -244 0
160 -161 -174 -188 -244 0
-160 244 0
-160 -161 174 0
-160 188 0
-160 161 -174 0
-5 161 -162 0
-5 161 -172 0
-5 161 -171 0
5 -161 0
-161 162 171 172 0
162 165 -166 0
-53 162 163 -166 0
-162 166 0
-162 -163 -165 0
53 -162 -165 0
-48 163 1217 0
48 163 164 0
-48 -163 -1217 0
48 -163 -164 0
-28 164 -1216 0
-164 1216 0
28 -164 0
54 165 -846 0
165 -846 1218 0
-165 846 0
-54 -165 -1218 0
166 167 -168 0
-166 -167 0
-166 168 0
-163 167 846 -1021 0
164 167 846 1021 0
-167 -846 0
163 -167 -1021 0
-164 -167 1021 0
49 168 169 0
-49 -168 0
-168 -169 0
-24 169 -1042 0
169 -170 -1042 0
-169 1042 0
24 -169 170 0
-22 61 170 1049 0
-60 61 170 -1049 0
-61 -170 0
60 -170 -1049 0
22 -170 1049 0
-22 -57 171 -1220 0
-171 1220 0
22 -171 0
57 -171 0
-24 172 -173 -1219 0
-172 1219 0
24 -172 0
-172 173 0
170 173 -1042 0
-173 1042 0
-170 -173 0
174 -175 -187 0
174 -184 -187 0
174 -185 -187 0
-174 187 0
-174 175 184 185 0
175 178 -179 0
-110 175 176 -179 0
-175 179 0
-175 -176 -178 0
110 -175 -178 0
-105 176 825 0
105 176 177 0
-105 -176 -825 0
105 -176 -177 0
-83 177 -824 0
-177 824 0
83 -177 0
112 178 -309 0
178 -309 826 0
-178 309 0
-112 -178 -826 0
179 180 -181 0
-179 -180 0
-179 181 0
-176 180 309 -484 0
177 180 309 484 0
-180 -309 0
176 -180 -484 0
-177 -180 484 0
106 181 182 0
-106 -181 0
-181 -182 0
-79 182 -505 0
182 -183 -505 0
-182 505 0
79 -182 183 0
-77 118 183 512 0
-117 118 183 -512 0
-118 -183 0
117 -183 -512 0
77 -183 512 0
-77 -114 184 -828 0
-184 828 0
77 -184 0
114 -184 0
-79 185 -186 -827 0
-185 827 0
79 -185 0
-185 186 0
183 186 -505 0
-186 505 0
-183 -186 0
66 -73 -74 -75 187 0
-66 -187 0
75 -187 0
74 -187 0
73 -187 0
188 189 200 -211 -227 0
188 -189 -200 -211 -227 0
-188 227 0
-188 -189 200 0
-188 211 0
-188 189 -200 0
189 190 -196 -199 0
189 190 -196 846 0
-189 196 0
-189 -190 0
-189 199 -846 0
190 191 195 0
190 193 195 0
190 191 -193 846 0
-190 -191 -193 0
-190 193 -195 0
-190 -195 -846 0
-29 191 -1194 0
-29 43 191 192 0
29 -191 0
-191 -192 1194 0
-43 -191 1194 0
192 857 1231 0
-192 -857 0
-192 -1231 0
193 -194 1021 1022 0
-193 194 0
-193 -1022 0
-193 -1021 0
194 1023 1024 1025 0
-194 -1023 0
-194 -1025 0
-194 -1024 0
195 965 -1232 0
-191 195 -965 0
191 -195 -965 0
-195 965 1232 0
9 -12 196 -197 0
-12 196 -197 -198 0
-196 197 0
12 -196 0
-9 -196 198 0
49 63 197 0
49 62 197 0
-49 -197 0
-62 -63 -197 0
8 198 -1078 0
-198 1078 0
-8 -198 0
55 -195 199 0
-55 -199 0
195 -199 0
200 201 -208 309 0
200 201 -207 -208 0
-200 208 0
-200 -201 0
-200 207 -309 0
201 202 206 0
201 204 206 0
201 202 -204 309 0
-201 -202 -204 0
-201 204 -206 0
-201 -206 -309 0
-88 202 -802 0
84 -88 202 203 0
88 -202 0
-202 -203 802 0
-84 -202 802 0
203 320 839 0
-203 -320 0
-203 -839 0
204 -205 484 485 488 0
-204 205 0
-204 -488 0
-204 -484 0
-204 -485 0
205 486 487 0
-205 -486 0
-205 -487 0
206 428 -840 0
-202 206 -428 0
202 -206 -428 0
-206 428 840 0
111 -206 207 0
-111 -207 0
206 -207 0
-72 208 -209 0
72 -208 0
-208 209 0
69 209 -210 0
68 209 -210 -541 0
-209 210 0
-68 -69 -209 0
-69 -209 541 0
106 120 210 0
106 119 210 0
-106 -210 0
-119 -120 -210 0
211 212 214 219 -221 0
211 -212 -214 219 -221 0
-211 -219 0
-211 212 -214 0
-211 221 0
-211 -212 214 0
-196 212 -213 846 0
55 -196 212 -213 0
-212 213 0
196 -212 0
-55 -212 -846 0
-29 213 -1194 1196 0
-213 1194 0
-213 -1196 0
29 -213 0
-88 -209 214 215 -216 0
-214 216 0
88 -214 0
209 -214 0
-214 -215 0
-111 215 -309 0
-215 309 0
111 -215 0
216 -217 -218 -802 804 0
-216 218 0
-216 802 0
-216 217 0
-216 -804 0
217 -570 -599 -744 -773 0
-217 773 0
-217 570 0
-217 744 0
-217 599 0
-74 218 -686 -715 0
-218 686 0
-218 715 0
74 -218 0
-14 -18 -20 219 220 0
20 -219 0
-219 -220 0
14 -219 0
18 -219 0
15 17 220 0
-15 -220 0
-17 -220 0
10 221 -222 0
8 221 -222 0
11 221 -222 0
-221 222 0
-8 -10 -11 -221 0
43 -197 222 -223 -226 0
-43 -222 0
-222 226 0
-222 223 0
197 -222 0
223 224 -225 -848 0
223 224 -225 -849 0
-223 225 0
-223 -224 0
-223 848 849 0
-55 224 -846 0
-224 846 0
55 -224 0
-13 225 -850 0
-13 225 851 0
13 -225 0
-225 850 -851 0
-36 37 226 0
30 37 226 0
-37 -226 0
-30 36 -226 0
227 -228 -236 0
227 228 236 0
-227 228 -236 0
-227 -228 236 0
228 -232 846 0
55 228 229 -232 0
-228 232 0
-228 -229 -846 0
-55 -228 -846 0
229 230 -965 0
-213 229 965 1202 0
-229 965 -1202 0
-229 -230 -965 0
213 -229 965 0
-29 230 -231 0
29 -230 0
-230 231 0
231 -1194 -1196 0
43 231 1194 0
231 -1194 -1200 0
-43 -231 1194 0
-231 -1194 1196 1200 0
-196 232 -233 234 0
-196 229 232 234 0
196 -232 0
-232 -234 0
-229 -232 233 0
233 1021 1022 0
-233 -1021 0
-233 -1022 0
230 234 -235 0
194 -229 234 0
194 234 -235 0
-229 230 234 0
229 -234 235 0
-194 -230 -234 0
-193 235 846 0
-235 -846 0
193 -235 0
-208 236 237 0
208 -236 0
-236 -237 0
204 237 -238 0
237 242 243 0
237 -238 242 0
-237 238 -243 0
-204 -237 -242 0
-237 238 -242 0
238 239 -428 0
-88 238 -241 428 0
-238 -239 -428 0
88 -238 428 0
-238 241 428 0
-88 239 -240 0
88 -239 0
-239 240 0
240 -802 -804 0
84 240 802 0
240 -802 -808 0
-84 -240 802 0
-240 -802 804 808 0
241 -802 804 810 0
-241 802 0
-241 -810 0
-241 -804 0
204 242 309 0
-239 242 309 0
-242 -309 0
-204 239 -242 0
111 243 -309 0
-243 309 0
-111 -243 0
244 245 254 -263 -273 0
244 -245 -254 -263 -273 0
244 245 254 263 273 0
244 -245 -254 263 273 0
-244 245 -254 0
-244 -245 254 0
-244 263 -273 0
-244 -263 273 0
-187 245 -246 0
-187 245 -253 0
-187 245 -252 0
187 -245 0
-245 246 252 253 0
246 249 -250 0
-110 246 247 -250 0
-246 250 0
-246 -247 -249 0
110 -246 -249 0
-105 247 834 0
105 247 248 0
-105 -247 -834 0
105 -247 -248 0
-83 248 -833 0
-248 833 0
83 -248 0
112 249 -309 0
249 -309 835 0
-249 309 0
-112 -249 -835 0
-181 250 251 0
181 -250 0
-250 -251 0
-247 251 309 -484 0
248 251 309 484 0
-251 -309 0
247 -251 -484 0
-248 -251 484 0
-77 -114 252 -837 0
-252 837 0
77 -252 0
114 -252 0
-79 -186 253 -836 0
-253 836 0
79 -253 0
186 -253 0
6 -13 254 255 -1107 0
13 -254 0
-254 -255 0
-254 1107 0
-6 -254 0
168 255 -261 0
255 -256 -261 0
255 -260 -261 0
-255 261 0
-168 -255 256 260 0
256 257 -846 1227 0
54 256 257 -846 0
-256 846 0
-256 -257 0
-54 -256 -1227 0
-53 257 258 0
53 -257 0
-257 -258 0
-48 258 1226 0
48 258 259 0
-48 -258 -1226 0
48 -258 -259 0
-28 259 -1225 0
-259 1225 0
28 -259 0
-258 260 846 -1021 0
259 260 846 1021 0
-260 -846 0
258 -260 -1021 0
-259 -260 1021 0
22 261 262 0
57 261 262 0
261 262 1229 0
-261 -262 0
-22 -57 -261 -1229 0
-24 -173 262 -1228 0
-262 1228 0
24 -262 0
173 -262 0
-5 169 263 264 0
-5 263 264 272 0
5 -263 0
-263 -264 0
-169 -263 -272 0
264 266 1042 0
24 264 265 266 0
-264 -266 0
-264 -265 -1042 0
-24 -264 -1042 0
-22 265 1049 -1224 0
22 -265 0
-265 1224 0
-265 -1049 0
49 266 267 271 0
49 266 267 -270 0
-49 -266 0
-266 -267 0
-266 270 -271 0
267 -269 846 -1021 0
267 268 846 1021 0
-267 -846 0
-267 269 -1021 0
-267 -268 1021 0
-28 268 -850 0
-268 850 0
28 -268 0
-48 269 1221 0
48 268 269 0
-48 -269 -1221 0
48 -268 -269 0
-53 269 270 0
53 -270 0
-269 -270 0
54 271 -846 0
271 -846 1222 0
-271 846 0
-54 -271 -1222 0
-170 265 272 0
265 272 1223 0
-265 -272 0
170 -272 -1223 0
-65 182 273 274 0
-65 273 274 282 0
65 -273 0
-273 -274 0
-182 -273 -282 0
274 276 505 0
79 274 275 276 0
-274 -276 0
-274 -275 -505 0
-79 -274 -505 0
-77 275 512 -832 0
77 -275 0
-275 832 0
-275 -512 0
106 276 277 281 0
106 276 277 -280 0
-106 -276 0
-276 -277 0
-276 280 -281 0
277 -279 309 -484 0
277 278 309 484 0
-277 -309 0
-277 279 -484 0
-277 -278 484 0
-83 278 -313 0
-278 313 0
83 -278 0
-105 279 829 0
105 278 279 0
-105 -279 -829 0
105 -278 -279 0
-110 279 280 0
110 -280 0
-279 -280 0
112 281 -309 0
281 -309 830 0
-281 309 0
-112 -281 -830 0
-183 275 282 0
275 282 831 0
-275 -282 0
183 -282 -831 0
131 283 284 294 0
-121 283 -284 -294 0
-121 283 284 294 0
131 283 -284 -294 0
-283 284 -294 0
-283 -284 294 0
121 -131 -283 0
-5 284 -285 0
-5 284 293 0
5 -284 0
-284 285 -293 0
22 -57 285 -286 0
-22 -57 285 -1206 0
57 -285 0
22 -285 286 0
-22 -285 1206 0
-24 286 -1205 0
24 286 -287 0
-24 -286 1205 0
24 -286 287 0
49 287 288 292 0
49 287 288 -291 0
-49 -287 0
-287 -288 0
-287 291 -292 0
288 289 -846 1204 0
54 288 289 -846 0
-288 846 0
-288 -289 0
-54 -288 -1204 0
-53 289 290 0
53 -289 0
-289 -290 0
28 48 290 0
-48 290 1203 0
48 290 851 0
-48 -290 -1203 0
-28 48 -290 -851 0
-28 48 291 -851 0
-28 291 -851 1021 0
28 -291 0
-291 851 0
-48 -291 -1021 0
292 846 1203 0
292 846 1021 0
48 292 846 0
-292 -846 0
-48 -292 -1021 -1203 0
-59 287 293 0
286 293 -1042 0
-59 293 -1042 0
286 287 293 0
59 -286 -293 0
-287 -293 1042 0
-65 294 -295 0
-65 294 303 0
65 -294 0
-294 295 -303 0
77 -114 295 -296 0
-77 -114 295 -814 0
114 -295 0
77 -295 296 0
-77 -295 814 0
-79 296 -813 0
79 296 -297 0
-79 -296 813 0
79 -296 297 0
106 297 298 302 0
106 297 298 -301 0
-106 -297 0
-297 -298 0
-297 301 -302 0
298 299 -309 812 0
112 298 299 -309 0
-298 309 0
-298 -299 0
-112 -298 -812 0
-110 299 300 0
110 -299 0
-299 -300 0
83 105 300 0
-105 300 811 0
105 300 314 0
-105 -300 -811 0
-83 105 -300 -314 0
-83 105 301 -314 0
-83 301 -314 484 0
83 -301 0
-301 314 0
-105 -301 -484 0
302 309 811 0
302 309 484 0
105 302 309 0
-302 -309 0
-105 -302 -484 -811 0
-116 297 303 0
296 303 -505 0
-116 303 -505 0
296 297 303 0
116 -296 -303 0
-297 -303 505 0
-68 -70 -71 304 0
68 -304 0
70 -304 0
71 -304 0
-96 305 -306 0
-100 305 -306 0
-103 305 -306 0
-305 306 0
96 100 103 -305 0
84 89 -210 306 -307 0
-84 -306 0
-306 307 0
210 -306 0
-89 -306 0
215 -217 -218 307 -308 0
-215 -307 0
-307 308 0
218 -307 0
217 -307 0
308 -312 -313 0
308 -311 314 0
308 -311 -313 0
308 -312 314 0
-308 313 -314 0
-308 311 312 0
1 2 0
-1 -2 0
1238 0

